16
6 9
6 1
6 7
6 10
6 13
6 3
6 11
6 4
6 8
6 0
6 12
9 14
9 8
9 13
9 3
9 1
9 12
9 5
9 4
9 2
9 7
0 7
0 10
0 4
0 1
0 14
0 5
0 2
0 15
0 3
0 13
7 8
7 2
7 5
7 11
7 14
7 13
7 1
7 4
1 11
1 12
1 15
1 10
1 3
1 14
1 4
10 14
10 5
10 15
10 3
10 8
10 11
10 12
10 2
2 5
2 12
2 8
2 13
2 3
2 4
2 15
5 8
5 11
5 3
5 13
5 12
5 15
11 15
11 3
11 4
11 14
11 13
11 8
8 12
8 13
8 4
8 3
4 15
4 12
4 14
14 15
14 12
14 3
14 13
15 3
15 13
15 12
12 13
